3271.07 0
0 135 136 133 134 105 104 107 103 99 100 101 102 106 74 0
0 125 45 33 34 29 0
0 62 37 40 82 84 121 42 41 36 32 30 98 146 0
0 112 18 24 17 81 85 83 127 132 131 129 6 0
0 51 128 126 110 113 115 117 25 14 15 0
0 67 65 66 70 68 69 90 87 91 89 86 88 92 120 109 108 119 111 116 118 114 0
0 35 47 43 38 48 122 124 123 130 44 46 55 0
0 9 21 26 13 19 11 27 16 20 22 12 23 0
0 140 97 93 95 94 58 0
0 149 137 143 141 39 49 0
0 77 75 72 76 79 28 31 96 138 139 0
0 78 73 80 71 0
0 1 5 7 8 2 61 57 60 64 59 148 145 144 147 142 0
0 10 4 150 54 63 52 53 3 50 56 0
